0 5148.34
1 5035.00
2 4989.24
3 4989.24
4 4989.24
5 4983.54
6 4983.54
7 4983.54
8 4983.54
9 4941.21
10 4941.21
11 4941.21
12 4934.73
13 4920.59
14 4920.59
15 4920.59
16 4920.59
17 4920.59
18 4920.59
19 4920.59
20 4920.59
21 4920.59
22 4920.59
23 4920.59
24 4920.59
25 4920.59
26 4920.59
27 4920.59
28 4920.59
29 4920.59
30 4920.59
31 4920.59
32 4920.59
33 4920.59
34 4913.33
35 4913.33
36 4913.33
37 4913.33
38 4913.33
39 4913.33
40 4913.33
41 4913.33
42 4913.33
43 4913.33
44 4913.33
45 4913.33
46 4907.36
47 4893.10
48 4893.10
49 4893.10
50 4893.10
51 4893.10
52 4893.10
53 4893.10
54 4893.10
55 4893.10
56 4893.10
57 4893.10
58 4893.10
59 4893.10
60 4893.10
61 4893.10
62 4893.10
63 4893.10
64 4893.10
65 4893.10
66 4893.10
67 4893.10
68 4893.10
69 4893.10
70 4893.10
71 4893.10
72 4893.10
73 4893.10
74 4893.10
75 4893.10
76 4893.10
77 4893.10
78 4893.10
79 4893.10
80 4893.10
81 4893.10
82 4893.10
83 4893.10
84 4893.10
85 4893.10
86 4893.10
87 4893.10
88 4893.10
89 4893.10
90 4893.10
91 4893.10
92 4893.10
93 4893.10
94 4893.10
95 4893.10
96 4893.10
97 4893.10
98 4888.71
99 4888.71
100 4888.71
101 4888.71
102 4888.71
103 4888.71
104 4888.71
105 4888.71
106 4888.71
107 4888.71
108 4888.71
109 4888.71
110 4888.71
111 4888.71
112 4888.71
113 4888.71
114 4888.71
115 4888.71
116 4888.71
117 4888.71
118 4888.71
119 4888.71
120 4888.71
121 4888.71
122 4888.71
123 4888.71
124 4888.71
125 4888.71
126 4888.71
127 4888.71
128 4888.71
129 4888.71
130 4888.71
131 4888.71
132 4888.71
133 4888.71
134 4888.71
135 4888.71
136 4888.71
137 4888.71
138 4871.71
139 4871.71
140 4871.71
141 4871.71
142 4871.71
143 4871.71
144 4871.71
145 4871.71
146 4871.71
147 4871.71
148 4871.71
149 4871.71
150 4871.71
151 4871.71
152 4871.71
153 4871.71
154 4871.71
155 4871.71
156 4871.71
157 4871.71
158 4871.71
159 4871.71
160 4871.71
161 4871.71
162 4871.71
163 4871.71
164 4871.71
165 4871.71
166 4871.71
167 4871.71
168 4871.71
169 4871.71
170 4827.39
171 4827.39
172 4827.39
173 4827.39
174 4827.39
175 4827.39
176 4827.39
177 4827.39
178 4827.39
179 4827.39
180 4827.39
181 4827.39
182 4827.39
183 4827.39
184 4827.39
185 4827.39
186 4827.39
187 4827.39
188 4827.39
189 4827.39
190 4827.39
191 4827.39
192 4827.39
193 4827.39
194 4827.39
195 4827.39
196 4827.39
197 4827.39
198 4827.39
199 4827.39
200 4827.39
201 4827.39
202 4827.39
203 4827.39
204 4827.39
205 4827.39
206 4827.39
207 4827.39
208 4827.39
209 4827.39
210 4827.39
211 4827.39
212 4827.39
213 4827.39
214 4827.39
215 4827.39
216 4827.39
217 4827.39
218 4827.39
219 4827.39
220 4827.39
221 4827.39
222 4827.39
223 4827.39
224 4827.39
225 4827.39
226 4827.39
227 4827.39
228 4827.39
229 4827.39
230 4827.39
231 4827.39
232 4827.39
233 4827.39
234 4827.39
235 4827.39
236 4827.39
237 4827.39
238 4827.39
239 4827.39
240 4827.39
241 4827.39
242 4827.39
243 4827.39
244 4827.39
245 4827.39
246 4827.39
247 4827.39
248 4827.39
249 4827.39
250 4827.39
251 4827.39
252 4827.39
253 4827.23
254 4827.23
255 4810.39
256 4810.39
257 4810.39
258 4810.39
259 4810.39
260 4810.39
261 4810.39
262 4810.39
263 4810.39
264 4810.39
265 4810.39
266 4810.39
267 4810.39
268 4810.39
269 4810.39
270 4810.39
271 4810.39
272 4810.39
273 4810.39
274 4810.39
275 4810.39
276 4810.39
277 4810.39
278 4810.39
279 4810.39
280 4810.39
281 4810.39
282 4810.39
283 4810.39
284 4810.39
285 4810.39
286 4810.39
287 4810.39
288 4810.39
289 4810.39
290 4810.39
291 4810.39
292 4810.39
293 4810.39
294 4810.39
295 4810.39
296 4810.39
297 4810.39
298 4810.39
299 4810.39
300 4810.39
301 4810.39
302 4810.39
303 4810.39
304 4810.39
305 4810.39
306 4810.39
307 4810.39
308 4810.39
309 4810.39
310 4810.39
311 4810.39
312 4810.39
313 4810.39
314 4810.39
315 4810.39
316 4810.39
317 4810.39
318 4810.39
319 4810.39
320 4810.39
321 4810.39
322 4810.39
323 4810.39
324 4810.39
325 4810.39
326 4810.39
327 4810.39
328 4810.39
329 4810.39
330 4810.39
331 4810.39
332 4810.39
333 4810.39
334 4810.39
335 4810.39
336 4810.39
337 4810.39
338 4810.39
339 4810.39
340 4810.39
341 4810.39
342 4810.39
343 4810.39
344 4810.39
345 4810.39
346 4810.39
347 4810.39
348 4810.39
349 4810.39
350 4810.39
351 4810.39
352 4810.39
353 4810.39
354 4810.39
355 4810.39
356 4810.39
357 4810.39
358 4810.39
359 4810.39
360 4810.39
361 4810.39
362 4810.39
363 4810.39
364 4810.39
365 4810.39
366 4810.39
367 4810.39
368 4810.39
369 4810.39
370 4810.39
371 4810.39
372 4810.39
373 4810.39
374 4810.39
375 4810.39
376 4810.39
377 4810.39
378 4810.39
379 4810.39
380 4810.39
381 4810.39
382 4810.39
383 4810.39
384 4810.39
385 4810.39
386 4810.39
387 4810.39
388 4810.39
389 4810.39
390 4810.39
391 4810.39
392 4810.39
393 4810.39
394 4810.39
395 4810.39
396 4810.39
397 4810.39
398 4810.39
399 4810.39
400 4810.39
401 4810.39
402 4810.39
403 4810.39
404 4810.39
405 4810.39
406 4810.39
407 4810.39
408 4810.39
409 4810.39
410 4810.39
411 4810.39
412 4810.39
413 4810.39
414 4810.39
415 4810.39
416 4810.39
417 4810.39
418 4810.39
419 4810.39
420 4810.39
421 4810.39
422 4810.39
423 4810.39
424 4810.39
425 4810.39
426 4810.39
427 4810.39
428 4810.39
429 4810.39
430 4810.39
431 4810.39
432 4810.39
433 4810.39
434 4810.39
435 4810.39
436 4810.39
437 4810.39
438 4810.39
439 4810.39
440 4810.39
441 4810.39
442 4810.39
443 4810.39
444 4810.39
445 4810.39
446 4810.39
447 4810.39
448 4810.39
449 4810.39
450 4810.39
451 4810.39
452 4810.39
453 4810.39
454 4810.39
455 4810.39
456 4810.39
457 4810.39
458 4810.39
459 4810.39
460 4810.39
461 4810.39
462 4810.39
463 4810.39
464 4810.39
465 4810.39
466 4810.39
467 4810.39
468 4810.39
469 4810.39
470 4810.39
471 4810.39
472 4810.39
473 4810.39
474 4810.39
475 4810.39
476 4810.39
477 4810.39
478 4810.39
479 4810.39
480 4810.39
481 4810.39
482 4810.39
483 4810.39
484 4810.39
485 4810.39
486 4810.39
487 4810.39
488 4810.39
489 4810.39
490 4810.39
491 4810.39
492 4810.39
493 4810.39
494 4810.39
495 4810.39
496 4810.39
497 4810.39
498 4810.39
499 4810.39
2 8 8 3 0 0 